StudentsNr = 10;
InstructorsNr = 92;
DaysNr = 2;
SlotsPerDay = 10;
AvailabilitySlotsLenght = 2;
RoomNr = 2;
ProgrammNr = 2;
DegreeNr = 3;
RolesNr = 4;
CoursesNr = 7;
InstructorsProgramm = [{1}, {1, 2}, {1}, {1, 2}, {1}, {2}, {1}, {1, 2}, {1}, {1}, {1}, {1, 2}, {1}, {2}, {2}, {1, 2}, {1}, {1, 2}, {2}, {2}, {2}, {1, 2}, {1}, {2}, {2}, {1}, {2}, {2}, {1, 2}, {2}, {2}, {1, 2}, {1, 2}, {1}, {1, 2}, {1}, {2}, {2}, {1, 2}, {2}, {1, 2}, {2}, {2}, {1, 2}, {1}, {1, 2}, {2}, {1}, {2}, {1}, {1}, {1}, {2}, {1}, {1, 2}, {2}, {1}, {2}, {1}, {1}, {1}, {2}, {2}, {2}, {1}, {2}, {1}, {2}, {2}, {1}, {2}, {2}, {1}, {1}, {1}, {1, 2}, {1, 2}, {1}, {1}, {1}, {2}, {1, 2}, {2}, {2}, {1, 2}, {2}, {2}, {1, 2}, {1}, {1}, {2}, {2}];
InstructorRolesPerProgramm = [|{2, 3, 4, 9, 11, 13, 22, 33, 34, 41, 44, 46, 48, 54, 55, 57, 67, 75, 76, 80, 85, 88, 89}, {8, 16, 17, 29, 32, 34, 35, 52, 54, 55, 61, 65, 67, 80, 82, 85}, {3, 5, 7, 9, 11, 22, 32, 35, 36, 41, 45, 48, 57, 60, 67, 70, 73, 75, 76, 77, 78, 80, 82, 85, 88, 90}, {3, 4, 5, 7, 9, 10, 16, 22, 26, 33, 34, 35, 39, 45, 46, 51, 54, 55, 59, 65, 67, 73, 76, 77, 78, 82, 90}|{2, 4, 22, 25, 30, 33, 37, 41, 42, 44, 46, 55, 63, 66, 68, 69, 72, 76, 81, 84, 85, 87, 88}, {8, 14, 16, 21, 25, 28, 29, 32, 35, 47, 55, 68, 81, 82, 84, 85, 92}, {15, 21, 22, 27, 28, 32, 35, 37, 41, 42, 43, 47, 53, 58, 66, 68, 69, 71, 76, 77, 82, 85, 88}, {4, 15, 16, 22, 25, 28, 30, 33, 35, 39, 40, 46, 49, 55, 58, 68, 76, 77, 82, 84, 92}|];
InstructorsAvailability = [|0, 0, 0, 1, 1, 1, 1, 1, 1, 1, |1, 1, 1, 0, 1, 1, 0, 1, 1, 1, |1, 1, 1, 1, 1, 1, 1, 1, 0, 0, |0, 1, 1, 1, 1, 1, 1, 1, 1, 1, |0, 1, 1, 1, 0, 1, 0, 1, 1, 1, |0, 1, 1, 1, 0, 0, 1, 1, 1, 1, |0, 1, 1, 1, 1, 1, 0, 0, 0, 1, |0, 0, 1, 0, 1, 0, 1, 1, 1, 1, |1, 1, 1, 1, 1, 1, 1, 1, 1, 1, |0, 0, 1, 1, 1, 1, 1, 1, 1, 1, |1, 1, 1, 0, 0, 0, 1, 1, 1, 1, |1, 1, 1, 1, 1, 1, 1, 0, 1, 1, |0, 1, 1, 1, 1, 1, 1, 1, 1, 1, |0, 1, 1, 1, 1, 1, 0, 1, 1, 1, |1, 1, 1, 1, 1, 1, 1, 1, 1, 1, |0, 1, 1, 1, 0, 0, 1, 0, 1, 1, |1, 1, 0, 1, 1, 1, 1, 1, 1, 1, |0, 1, 0, 1, 1, 1, 1, 0, 1, 1, |0, 1, 1, 1, 1, 1, 1, 1, 1, 1, |0, 1, 1, 1, 1, 0, 0, 0, 1, 1, |0, 1, 1, 1, 1, 1, 1, 1, 1, 1, |1, 0, 1, 1, 1, 1, 1, 0, 1, 0, |0, 1, 1, 1, 1, 1, 1, 0, 1, 1, |1, 1, 1, 1, 0, 1, 1, 1, 1, 1, |0, 1, 1, 1, 1, 1, 1, 0, 1, 1, |1, 1, 1, 1, 1, 1, 0, 0, 1, 1, |0, 1, 1, 0, 1, 0, 0, 0, 0, 1, |0, 1, 1, 1, 1, 1, 0, 1, 1, 0, |0, 1, 1, 1, 1, 1, 1, 1, 1, 1, |1, 1, 1, 1, 1, 1, 1, 0, 1, 1, |1, 1, 1, 1, 1, 1, 0, 1, 1, 0, |0, 0, 0, 1, 1, 0, 1, 0, 0, 1, |0, 1, 1, 1, 1, 1, 1, 1, 1, 1, |1, 1, 1, 0, 1, 0, 1, 1, 1, 0, |1, 1, 1, 1, 1, 1, 1, 1, 1, 1, |1, 1, 1, 1, 0, 1, 0, 0, 1, 1, |1, 1, 0, 0, 0, 1, 0, 1, 1, 0, |1, 0, 0, 1, 1, 0, 1, 1, 1, 1, |0, 1, 1, 0, 0, 1, 1, 1, 1, 0, |1, 1, 1, 1, 1, 1, 0, 0, 1, 1, |1, 1, 0, 1, 1, 1, 1, 1, 1, 1, |0, 1, 1, 1, 1, 1, 1, 1, 1, 1, |1, 1, 1, 1, 1, 1, 0, 1, 1, 1, |0, 1, 1, 1, 0, 0, 1, 1, 1, 1, |0, 1, 1, 1, 1, 1, 1, 1, 1, 1, |1, 0, 1, 1, 0, 0, 1, 1, 1, 1, |1, 1, 1, 0, 0, 1, 1, 1, 1, 0, |0, 1, 1, 1, 1, 1, 0, 1, 0, 1, |1, 1, 0, 0, 1, 0, 0, 1, 1, 1, |1, 1, 1, 1, 1, 1, 1, 1, 1, 1, |1, 0, 1, 0, 1, 1, 1, 1, 1, 1, |0, 1, 1, 1, 1, 1, 1, 1, 1, 1, |0, 0, 0, 1, 1, 0, 1, 1, 1, 1, |1, 1, 1, 0, 1, 1, 1, 1, 1, 1, |1, 1, 0, 1, 1, 1, 1, 0, 0, 0, |1, 0, 1, 1, 1, 1, 1, 1, 1, 0, |1, 1, 1, 0, 1, 1, 1, 1, 0, 1, |1, 1, 1, 0, 1, 1, 1, 1, 1, 1, |0, 0, 1, 1, 0, 1, 1, 1, 1, 1, |1, 1, 0, 1, 1, 1, 1, 0, 1, 1, |1, 1, 1, 1, 0, 1, 1, 1, 0, 1, |0, 1, 1, 0, 1, 0, 1, 1, 1, 1, |0, 1, 1, 0, 1, 1, 1, 1, 1, 1, |0, 0, 1, 1, 1, 1, 1, 1, 1, 1, |0, 1, 1, 1, 1, 1, 1, 0, 1, 1, |0, 1, 1, 1, 1, 1, 1, 1, 1, 1, |0, 0, 0, 1, 1, 1, 1, 1, 1, 1, |0, 1, 1, 1, 1, 0, 1, 1, 1, 0, |0, 1, 0, 1, 0, 1, 1, 1, 1, 1, |0, 0, 0, 0, 1, 1, 1, 1, 1, 1, |1, 1, 1, 1, 1, 1, 1, 0, 0, 1, |1, 1, 1, 0, 0, 1, 1, 1, 1, 1, |1, 1, 1, 0, 1, 1, 1, 1, 1, 1, |0, 1, 0, 0, 1, 0, 1, 0, 0, 1, |0, 1, 1, 1, 1, 1, 1, 1, 1, 1, |1, 1, 1, 1, 0, 0, 1, 0, 1, 1, |1, 1, 1, 0, 1, 1, 1, 1, 1, 0, |1, 1, 1, 1, 1, 1, 0, 0, 0, 1, |1, 1, 1, 1, 0, 1, 0, 0, 1, 1, |0, 1, 1, 1, 1, 1, 1, 0, 0, 1, |1, 1, 1, 1, 1, 1, 1, 1, 1, 0, |0, 1, 1, 1, 1, 1, 1, 1, 1, 1, |0, 1, 0, 0, 1, 1, 1, 0, 0, 0, |1, 1, 0, 0, 0, 1, 1, 1, 1, 1, |0, 1, 1, 1, 1, 0, 0, 1, 1, 1, |1, 1, 1, 1, 1, 1, 1, 1, 1, 1, |1, 1, 1, 1, 1, 1, 1, 1, 1, 1, |0, 1, 1, 1, 0, 1, 1, 1, 1, 0, |0, 1, 1, 1, 0, 1, 1, 0, 1, 0, |0, 0, 1, 1, 1, 1, 1, 1, 1, 1, |1, 1, 0, 0, 0, 1, 1, 1, 1, 1, |1, 1, 1, 1, 1, 1, 1, 1, 0, 0|];
StudentsProgramm = [1, 2, 2, 2, 2, 1, 1, 1, 2, 1];
StudentsDegree = [2, 1, 2, 1, 3, 3, 2, 2, 1, 3];
StudentsSupervisorId = [89, 21, 66, 8, 21, 35, 60, 88, 69, 10];
StudentsCourseIds = [{1, 2, 3, 5, 7}, {3, 5, 6}, {1, 3, 4, 5, 6}, {1, 3, 7}, {}, {}, {1, 3, 4, 5, 7}, {1, 2, 3, 6, 7}, {1, 4, 5}, {}];
StudentsAvailability = [|1, 1, 1, 1, 1, 1, 1, 1, 1, 1, |0, 1, 1, 1, 1, 0, 0, 0, 0, 0, |1, 1, 0, 1, 0, 1, 1, 1, 1, 1, |0, 1, 1, 1, 0, 0, 0, 0, 0, 1, |1, 1, 1, 1, 1, 1, 1, 1, 1, 1, |0, 0, 0, 0, 0, 0, 0, 1, 1, 1, |0, 1, 0, 0, 1, 1, 1, 1, 1, 0, |0, 0, 0, 0, 1, 1, 1, 1, 1, 1, |0, 1, 1, 0, 0, 1, 1, 0, 0, 1, |0, 0, 0, 1, 1, 1, 1, 1, 1, 0|];
TheoryticalMinCard = [0, 0, 0, 0, 0, 0, 0, 0, 0, 0];
CoursesInstructorIds = [{2, 8, 13, 15, 16, 17, 19, 22, 25, 26, 31, 32, 35, 41, 44, 49, 51, 52, 53, 57, 58, 60, 61, 63, 65, 66, 67, 68, 69, 71, 72, 73, 75, 76, 89, 90}, {1, 2, 6, 8, 16, 21, 24, 28, 29, 31, 34, 37, 40, 41, 45, 49, 50, 51, 52, 60, 62, 65, 67, 68, 69, 71, 73, 74, 75, 80, 83, 92}, {4, 6, 8, 15, 20, 22, 25, 28, 29, 30, 37, 54, 57, 59, 60, 64, 68, 69, 72, 74, 80}, {8, 11, 25, 49, 56, 63, 73}, {7, 13, 21, 23, 24, 28, 29, 62, 64, 68, 70, 72, 76, 89, 90}, {22, 37, 45, 50, 58, 59, 61, 72, 75, 77, 80, 81, 82, 83}, {37, 47, 49, 55}];
RolesDemands = [3, 7, 17, 12];
RolesContinuity = [2];
ExamLen = [2, 1, 2, 1, 2, 2, 2, 2, 1, 2];
LunchTsMinLen = 0;
LunchStarts = [2..7, 13..16];
SupervisorAvailable = 0;
OptimalLunchLenght = [2, 1];
OptimalStartTs = [1, 0];
OptimalFinishTs = [1, 10];
MinimizeRooms = 100;
RolesSoftContinuity = [|1, 2, 3, 4|2, 0, 4, 0|];
SameDegreeInRoom = 20;
Mergeability = 0;
